proyfinal/src/viki/013/andrea/andrea-localstore/experimentInOfficeAgust.take6/worker_10/04c7d0e8-2501-4136-a0ac-50c45e0a5913.als.cnf.out
Reading from standard input... Use '--help' for help.
============================[ Problem Statistics ]=============================
|                                                                             |
|  Number of variables:         87638                                         |
|  Number of clauses:          161767                                         |
|  Parse time:                   0.04 s                                       |
|                                                                             |
============================[ Search Statistics ]==============================
| Conflicts |          ORIGINAL         |          LEARNT          | Progress |
|           |    Vars  Clauses Literals |    Limit  Clauses Lit/Cl |          |
===============================================================================
|       100 |   61853   103465   258031 |    37937      100      7 | 29.422 % |
|       250 |   61853   103465   258031 |    41730      250     38 | 29.422 % |
|       475 |   61777   103177   257332 |    45903      467     33 | 29.509 % |
|       812 |   61776   103161   257288 |    50494      767     52 | 29.510 % |
|      1318 |   61776   103117   257198 |    55543     1273     76 | 29.510 % |
|      2077 |   61776   103117   257198 |    61098     2032     76 | 29.510 % |
|      3216 |   61776   103117   257198 |    67208     3171     80 | 29.510 % |
|      4924 |   61682   102744   256305 |    73928     4863     89 | 29.617 % |
|      7486 |   61656   102601   255993 |    81321     6639     88 | 29.647 % |
|     11330 |   61604   102315   255369 |    89453     9570     86 | 29.706 % |
===============================================================================
restarts              : 61
conflicts             : 14463          (6954 /sec)
decisions             : 47870          (0.00 % random) (23016 /sec)
propagations          : 19930323       (9582407 /sec)
conflict literals     : 1153781        (54.86 % deleted)
Memory used           : 38.22 MB
CPU time              : 2.07989 s

UNSATISFIABLE
